k = 48;
b = 24;
AtomicConstraints =  [|
3, 2|
	3, 6|
	3, 7|
	3, 26|
	3, 16|
	3, 25|
	3, 40|
	4, 2|
	4, 6|
	4, 7|
	4, 26|
	4, 25|
	4, 40|
	5, 2|
	5, 6|
	5, 7|
	5, 25|
	5, 40|
	6, 2|
	6, 25|
	6, 40|
	7, 2|
	7, 25|
	7, 40|
	8, 1|
	8, 2|
	8, 25|
	8, 40|
	8, 43|
	8, 41|
	8, 37|
	8, 39|
	8, 48|
	8, 45|
	8, 44|
	8, 42|
	8, 35|
	8, 46|
	9, 1|
	9, 2|
	9, 8|
	9, 10|
	9, 25|
	9, 40|
	9, 43|
	9, 41|
	9, 37|
	9, 39|
	9, 48|
	9, 45|
	9, 44|
	9, 42|
	9, 35|
	9, 46|
	10, 1|
	10, 2|
	10, 25|
	10, 40|
	10, 43|
	10, 41|
	10, 37|
	10, 39|
	10, 45|
	10, 44|
	10, 42|
	10, 35|
	10, 46|
	27, 2|
	27, 12|
	27, 13|
	27, 28|
	27, 31|
	27, 30|
	27, 26|
	27, 16|
	27, 20|
	27, 21|
	11, 2|
	11, 13|
	11, 28|
	11, 31|
	11, 30|
	11, 26|
	11, 16|
	11, 20|
	11, 21|
	32, 2|
	32, 26|
	32, 16|
	32, 21|
	12, 2|
	12, 26|
	12, 16|
	12, 21|
	13, 2|
	13, 30|
	13, 26|
	13, 16|
	13, 21|
	28, 2|
	28, 30|
	28, 26|
	28, 16|
	28, 21|
	31, 2|
	31, 30|
	31, 26|
	31, 16|
	31, 21|
	33, 2|
	33, 32|
	33, 12|
	33, 13|
	33, 28|
	33, 31|
	33, 30|
	33, 26|
	33, 16|
	33, 20|
	33, 21|
	33, 34|
	33, 23|
	33, 24|
	30, 2|
	30, 26|
	30, 16|
	30, 21|
	14, 2|
	14, 27|
	14, 32|
	14, 12|
	14, 13|
	14, 28|
	14, 31|
	14, 30|
	14, 26|
	14, 16|
	14, 20|
	14, 21|
	14, 34|
	14, 23|
	14, 24|
	15, 2|
	15, 27|
	15, 11|
	15, 32|
	15, 12|
	15, 13|
	15, 28|
	15, 31|
	15, 30|
	15, 26|
	15, 16|
	15, 20|
	15, 21|
	15, 34|
	15, 23|
	15, 24|
	26, 2|
	16, 2|
	29, 2|
	29, 27|
	29, 11|
	29, 12|
	29, 13|
	29, 28|
	29, 31|
	29, 30|
	29, 26|
	29, 16|
	29, 20|
	29, 21|
	29, 23|
	29, 24|
	17, 2|
	17, 19|
	17, 20|
	17, 21|
	19, 2|
	19, 20|
	19, 21|
	20, 2|
	20, 21|
	21, 2|
	18, 2|
	18, 27|
	18, 11|
	18, 13|
	18, 28|
	18, 31|
	18, 30|
	18, 26|
	18, 16|
	18, 19|
	18, 20|
	18, 21|
	18, 24|
	22, 2|
	22, 27|
	22, 11|
	22, 28|
	22, 31|
	22, 30|
	22, 16|
	22, 19|
	22, 20|
	22, 21|
	34, 2|
	34, 32|
	34, 12|
	34, 13|
	34, 28|
	34, 31|
	34, 30|
	34, 26|
	34, 16|
	34, 21|
	23, 2|
	23, 32|
	23, 12|
	23, 13|
	23, 28|
	23, 31|
	23, 30|
	23, 26|
	23, 16|
	23, 20|
	23, 21|
	24, 2|
	24, 32|
	24, 12|
	24, 13|
	24, 28|
	24, 31|
	24, 30|
	24, 26|
	24, 16|
	24, 20|
	24, 21|
	43, 1|
	43, 25|
	43, 40|
	41, 1|
	41, 25|
	37, 1|
	39, 1|
	48, 1|
	45, 1|
	45, 2|
	45, 25|
	45, 40|
	44, 1|
	44, 2|
	44, 25|
	44, 40|
	42, 1|
	42, 2|
	42, 25|
	42, 40|
	35, 1|
	35, 2|
	35, 25|
	35, 40|
	46, 1|
	46, 25|
	46, 40|
	47, 1|
	47, 2|
	47, 6|
	47, 7|
	47, 25|
	47, 40|
	47, 45|
	47, 44|
	47, 42|
	47, 35|
	47, 46|
	38, 1|
	38, 2|
	38, 6|
	38, 7|
	38, 25|
	38, 40|
	38, 45|
	38, 44|
	38, 42|
	38, 35|
	38, 46|
	36, 1|
	36, 2|
	36, 6|
	36, 7|
	36, 25|
	36, 40|
	36, 45|
	36, 44|
	36, 42|
	36, 35|
	36, 46|];
DisjunctiveConstraints =  [|3, 7, 3, 31|
	4, 5, 4, 3|
	8, 48, 8, 24|
	9, 39, 9, 15|
	10, 37, 10, 13|
	27, 26, 2, 27|
	27, 24, 27, 11|
	11, 16, 40, 11|
	12, 32, 12, 13|
	13, 12, 13, 28|
	28, 13, 28, 31|
	28, 26, 2, 28|
	14, 33, 14, 15|
	15, 14, 15, 29|
	29, 15, 29, 18|
	29, 26, 2, 29|
	18, 16, 40, 18|
	18, 29, 18, 22|
	23, 34, 23, 24|
	24, 23, 24, 27|
	41, 37, 41, 43|
	37, 39, 37, 41|
	39, 48, 39, 37|
	44, 42, 44, 45|
	42, 35, 42, 44|
	35, 46, 35, 42|
	38, 36, 38, 47|];
SoftAtomicConstraints =  [|
4, 3|
5, 4|
7, 6|
8, 10|
27, 11|
32, 12|
12, 13|
33, 14|
14, 15|
26, 16|
29, 18|
18, 22|
34, 23|
23, 24|
24, 27|
13, 28|
15, 29|
28, 31|
47, 34|
46, 35|
39, 37|
36, 38|
48, 39|
25, 40|
37, 41|
35, 42|
41, 43|
42, 44|
44, 45|
43, 46|
38, 47|];
DirectSuccessors =  [];
